p cnf 325
-3 1
-4 15
-5 20
-6 -26
-7 -30
-8 31
-9 3
-10 4
-11 5
-12 6
-13 7
-14 8
-15 1
-15 2
-1 -2 15
-16 2
-16 -15
-2 15 16
-17 -2
-17 15
2 -15 17
-18 -16
-18 -17
16 17 18
-19 2
-19 15
-2 -15 19
-20 1
-20 -18
-1 18 20
-21 2
-21 -18
-2 18 21
-22 1
-22 19
-1 -19 22
-23 2
-23 19
-2 -19 23
-24 21
-24 -22
-21 22 24
-25 -21
-25 22
21 -22 25
-26 -24
-26 -25
24 25 26
-27 21
-27 22
-21 -22 27
-28 23
-28 -27
-23 27 28
-29 -23
-29 27
23 -27 29
-30 -28
-30 -29
28 29 30
-31 23
-31 27
-23 -27 31
-32 1
-32 -3
-1 3 32
-33 -1
-33 3
1 -3 33
-34 -32
-34 -33
32 33 34
-35 1
-35 3
-1 -3 35
-36 -4
-36 15
4 -15 36
-37 4
-37 -15
-4 15 37
-38 -36
-38 -37
36 37 38
-39 4
-39 15
-4 -15 39
-40 -35
-40 -38
35 38 40
-41 35
-41 38
-35 -38 41
-42 -40
-42 -41
40 41 42
-43 35
-43 -38
-35 38 43
-44 -39
-44 -43
39 43 44
-45 -5
-45 20
5 -20 45
-46 5
-46 -20
-5 20 46
-47 -45
-47 -46
45 46 47
-48 5
-48 20
-5 -20 48
-49 44
-49 -47
-44 47 49
-50 -44
-50 47
44 -47 50
-51 -49
-51 -50
49 50 51
-52 -44
-52 -47
44 47 52
-53 -48
-53 -52
48 52 53
-54 -6
-54 -26
6 26 54
-55 6
-55 26
-6 -26 55
-56 -54
-56 -55
54 55 56
-57 6
-57 -26
-6 26 57
-58 53
-58 -56
-53 56 58
-59 -53
-59 56
53 -56 59
-60 -58
-60 -59
58 59 60
-61 -53
-61 -56
53 56 61
-62 -57
-62 -61
57 61 62
-63 -7
-63 -30
7 30 63
-64 7
-64 30
-7 -30 64
-65 -63
-65 -64
63 64 65
-66 7
-66 -30
-7 30 66
-67 62
-67 -65
-62 65 67
-68 -62
-68 65
62 -65 68
-69 -67
-69 -68
67 68 69
-70 -62
-70 -65
62 65 70
-71 -66
-71 -70
66 70 71
-72 -8
-72 31
8 -31 72
-73 8
-73 -31
-8 31 73
-74 -72
-74 -73
72 73 74
-75 8
-75 31
-8 -31 75
-76 71
-76 -74
-71 74 76
-77 -71
-77 74
71 -74 77
-78 -76
-78 -77
76 77 78
-79 -71
-79 -74
71 74 79
-80 -75
-80 -79
75 79 80
-81 9
-81 -34
-9 34 81
-82 -9
-82 34
9 -34 82
-83 -81
-83 -82
81 82 83
-84 10
-84 -42
-10 42 84
-85 -10
-85 42
10 -42 85
-86 -84
-86 -85
84 85 86
-87 11
-87 -51
-11 51 87
-88 -11
-88 51
11 -51 88
-89 -87
-89 -88
87 88 89
-90 12
-90 -60
-12 60 90
-91 -12
-91 60
12 -60 91
-92 -90
-92 -91
90 91 92
-93 13
-93 -69
-13 69 93
-94 -13
-94 69
13 -69 94
-95 -93
-95 -94
93 94 95
-96 14
-96 -78
-14 78 96
-97 -14
-97 78
14 -78 97
-98 -96
-98 -97
96 97 98
-99 -83
-99 -86
83 86 99
-100 -89
-100 -92
89 92 100
-101 -95
-101 -98
95 98 101
-102 99
-102 100
-99 -100 102
-103 80
-103 101
-80 -101 103
-104 102
-104 103
-102 -103 104
-105 -1
-105 -2
1 2 105
-106 -3
-106 -4
3 4 106
-107 -5
-107 -6
5 6 107
-108 -7
-108 -8
7 8 108
-109 106
-109 107
-106 -107 109
-110 108
-110 109
-108 -109 110
-111 -9
-111 -10
9 10 111
-112 -11
-112 -12
11 12 112
-113 -13
-113 -14
13 14 113
-114 111
-114 112
-111 -112 114
-115 113
-115 114
-113 -114 115
-116 -105
-116 -110
105 110 116
-117 -115
-117 116
115 -116 117
-118 104
-118 117
-104 -117 118
118
